; benchmark generated from python API
(set-info :status unknown)
(declare-fun x_days () Int)
(assert
 (>= x_days (- 36525)))
(assert
 (<= x_days 36523))
(assert
 (>= x_days 8341))
(assert
 (<= x_days 8705))
(assert
 (let ((?x971 (+ x_days 730179)))
(let ((?x3176 (mod ?x971 146097)))
(let ((?x559 (div ?x3176 36524)))
(let ((?x2383 (ite (<= 4 ?x559) 3 ?x559)))
(let ((?x2900 (- ?x3176 (* ?x2383 36524))))
(let ((?x2282 (mod ?x2900 1461)))
(let ((?x591 (div ?x2282 365)))
(let ((?x1142 (ite (<= 4 ?x591) 3 ?x591)))
(let ((?x3864 (+ (+ (* (div ?x971 146097) 400) (* ?x2383 100)) (* (div ?x2900 1461) 4))))
(let ((?x673 (+ (+ ?x3864 ?x1142) 1)))
(let (($x592 (or (and (= (mod ?x673 4) 0) (and (distinct (mod ?x673 100) 0) true)) (= (mod ?x673 400) 0))))
(let ((?x3643 (- ?x2282 (* ?x1142 365))))
(let ((?x544 (ite $x592 31 31)))
(let (($x994 (>= ?x3643 ?x544)))
(let ((?x2770 (ite $x994 (+ (- ?x3643 ?x544) 1) (+ (- ?x3643 (ite $x592 0 0)) 1))))
(let ((?x667 (ite $x592 60 59)))
(let (($x941 (>= ?x3643 ?x667)))
(let ((?x787 (ite $x592 91 90)))
(let (($x645 (>= ?x3643 ?x787)))
(let ((?x3338 (ite $x645 (+ (- ?x3643 ?x787) 1) (ite $x941 (+ (- ?x3643 ?x667) 1) ?x2770))))
(let ((?x1132 (ite $x592 121 120)))
(let (($x3865 (>= ?x3643 ?x1132)))
(let ((?x1195 (ite $x592 152 151)))
(let (($x3666 (>= ?x3643 ?x1195)))
(let ((?x2658 (ite $x3666 (+ (- ?x3643 ?x1195) 1) (ite $x3865 (+ (- ?x3643 ?x1132) 1) ?x3338))))
(let ((?x914 (ite $x592 182 181)))
(let (($x736 (>= ?x3643 ?x914)))
(let ((?x3867 (ite $x592 213 212)))
(let (($x646 (>= ?x3643 ?x3867)))
(let ((?x1129 (ite $x646 (+ (- ?x3643 ?x3867) 1) (ite $x736 (+ (- ?x3643 ?x914) 1) ?x2658))))
(let ((?x863 (ite $x592 244 243)))
(let (($x3449 (>= ?x3643 ?x863)))
(let ((?x1198 (ite $x592 274 273)))
(let (($x543 (>= ?x3643 ?x1198)))
(let ((?x3558 (ite $x543 (+ (- ?x3643 ?x1198) 1) (ite $x3449 (+ (- ?x3643 ?x863) 1) ?x1129))))
(let ((?x2273 (ite $x592 305 304)))
(let (($x2141 (>= ?x3643 ?x2273)))
(let ((?x1230 (ite $x592 335 334)))
(let (($x2607 (>= ?x3643 ?x1230)))
(let ((?x822 (ite $x2607 (+ (- ?x3643 ?x1230) 1) (ite $x2141 (+ (- ?x3643 ?x2273) 1) ?x3558))))
(let ((?x3860 (ite $x3865 5 (ite $x645 4 (ite $x941 3 (ite $x994 2 1))))))
(let ((?x1226 (ite $x3449 9 (ite $x646 8 (ite $x736 7 (ite $x3666 6 ?x3860))))))
(let ((?x1119 (+ (ite $x2607 12 (ite $x2141 11 (ite $x543 10 ?x1226))) (+ (* 0 12) 2))))
(let ((?x1686 (- ?x1119 1)))
(let ((?x2980 (+ (mod ?x1686 12) 1)))
(let ((?x1306 (ite (or (= ?x2980 4) (= ?x2980 6) (= ?x2980 9) (= ?x2980 11)) 30 31)))
(let (($x1046 (and (= (mod (+ ?x673 (+ 0 (div ?x1686 12))) 4) 0) (and (distinct (mod (+ ?x673 (+ 0 (div ?x1686 12))) 100) 0) true))))
(let (($x3244 (or $x1046 (= (mod (+ ?x673 (+ 0 (div ?x1686 12))) 400) 0))))
(let ((?x3531 (ite (= ?x2980 2) (ite $x3244 29 28) ?x1306)))
(let ((?x1946 (ite (> 1 ?x822) 1 (ite (> ?x822 ?x3531) ?x3531 ?x822))))
(let ((?x1053 (ite (> 1 ?x1946) 1 (ite (> ?x1946 ?x3531) ?x3531 ?x1946))))
(let ((?x1019 (ite (= 2 ?x2980) (ite $x3244 31 31) (ite (= 1 ?x2980) (ite $x3244 0 0) 0))))
(let ((?x584 (ite (= 4 ?x2980) (ite $x3244 91 90) (ite (= 3 ?x2980) (ite $x3244 60 59) ?x1019))))
(let ((?x1549 (ite (= 6 ?x2980) (ite $x3244 152 151) (ite (= 5 ?x2980) (ite $x3244 121 120) ?x584))))
(let ((?x3396 (ite (= 8 ?x2980) (ite $x3244 213 212) (ite (= 7 ?x2980) (ite $x3244 182 181) ?x1549))))
(let ((?x1537 (ite (= 10 ?x2980) (ite $x3244 274 273) (ite (= 9 ?x2980) (ite $x3244 244 243) ?x3396))))
(let ((?x3295 (ite (= 12 ?x2980) (ite $x3244 335 334) (ite (= 11 ?x2980) (ite $x3244 305 304) ?x1537))))
(let ((?x2014 (+ (* 365 (- (+ ?x673 (+ 0 (div ?x1686 12))) 1)) (div (- (+ ?x673 (+ 0 (div ?x1686 12))) 1) 4))))
(let ((?x2852 (+ (- ?x2014 (div (- (+ ?x673 (+ 0 (div ?x1686 12))) 1) 100)) (div (- (+ ?x673 (+ 0 (div ?x1686 12))) 1) 400))))
(let ((?x3618 (+ (+ (- (+ (+ ?x2852 ?x3295) (- ?x1053 1)) 730179) 0) 730179)))
(let ((?x3792 (mod ?x3618 146097)))
(let ((?x3596 (div ?x3792 36524)))
(let ((?x1674 (ite (<= 4 ?x3596) 3 ?x3596)))
(let ((?x2313 (- ?x3792 (* ?x1674 36524))))
(let ((?x2451 (mod ?x2313 1461)))
(let ((?x3522 (div ?x2451 365)))
(let ((?x3505 (ite (<= 4 ?x3522) 3 ?x3522)))
(let ((?x1261 (+ (+ (* (div ?x3618 146097) 400) (* ?x1674 100)) (* (div ?x2313 1461) 4))))
(let ((?x2452 (+ (+ ?x1261 ?x3505) 1)))
(let (($x2100 (or (and (= (mod ?x2452 4) 0) (and (distinct (mod ?x2452 100) 0) true)) (= (mod ?x2452 400) 0))))
(let ((?x3303 (- ?x2451 (* ?x3505 365))))
(let ((?x1319 (ite $x2100 31 31)))
(let (($x1775 (>= ?x3303 ?x1319)))
(let ((?x1345 (ite $x1775 (+ (- ?x3303 ?x1319) 1) (+ (- ?x3303 (ite $x2100 0 0)) 1))))
(let ((?x1657 (ite $x2100 60 59)))
(let (($x3681 (>= ?x3303 ?x1657)))
(let ((?x2864 (ite $x2100 91 90)))
(let (($x420 (>= ?x3303 ?x2864)))
(let ((?x3345 (ite $x420 (+ (- ?x3303 ?x2864) 1) (ite $x3681 (+ (- ?x3303 ?x1657) 1) ?x1345))))
(let ((?x1826 (ite $x2100 121 120)))
(let (($x1161 (>= ?x3303 ?x1826)))
(let ((?x1662 (ite $x2100 152 151)))
(let (($x3689 (>= ?x3303 ?x1662)))
(let ((?x3055 (ite $x3689 (+ (- ?x3303 ?x1662) 1) (ite $x1161 (+ (- ?x3303 ?x1826) 1) ?x3345))))
(let ((?x1544 (ite $x2100 182 181)))
(let (($x1907 (>= ?x3303 ?x1544)))
(let ((?x1358 (ite $x2100 213 212)))
(let (($x3163 (>= ?x3303 ?x1358)))
(let ((?x1973 (ite $x3163 (+ (- ?x3303 ?x1358) 1) (ite $x1907 (+ (- ?x3303 ?x1544) 1) ?x3055))))
(let ((?x1853 (ite $x2100 244 243)))
(let (($x2954 (>= ?x3303 ?x1853)))
(let ((?x1300 (ite $x2100 274 273)))
(let (($x1352 (>= ?x3303 ?x1300)))
(let ((?x481 (ite $x1352 (+ (- ?x3303 ?x1300) 1) (ite $x2954 (+ (- ?x3303 ?x1853) 1) ?x1973))))
(let ((?x2824 (ite $x2100 305 304)))
(let (($x977 (>= ?x3303 ?x2824)))
(let ((?x1470 (ite $x2100 335 334)))
(let (($x1197 (>= ?x3303 ?x1470)))
(let ((?x839 (ite $x1197 (+ (- ?x3303 ?x1470) 1) (ite $x977 (+ (- ?x3303 ?x2824) 1) ?x481))))
(let (($x1082 (= 0 0)))
(let (($x921 (= (mod (ite $x1082 (+ ?x673 (+ 0 (div ?x1686 12))) ?x2452) 400) 0)))
(let (($x415 (and (distinct (mod (ite $x1082 (+ ?x673 (+ 0 (div ?x1686 12))) ?x2452) 100) 0) true)))
(let (($x1447 (= (mod (ite $x1082 (+ ?x673 (+ 0 (div ?x1686 12))) ?x2452) 4) 0)))
(let (($x524 (or (and $x1447 $x415) $x921)))
(let ((?x986 (ite $x1161 5 (ite $x420 4 (ite $x3681 3 (ite $x1775 2 1))))))
(let ((?x3439 (ite $x2954 9 (ite $x3163 8 (ite $x1907 7 (ite $x3689 6 ?x986))))))
(let ((?x778 (ite $x1082 ?x2980 (ite $x1197 12 (ite $x977 11 (ite $x1352 10 ?x3439))))))
(let ((?x2159 (ite (= 2 ?x778) (ite $x524 31 31) (ite (= 1 ?x778) (ite $x524 0 0) 0))))
(let ((?x1189 (ite (= 4 ?x778) (ite $x524 91 90) (ite (= 3 ?x778) (ite $x524 60 59) ?x2159))))
(let ((?x542 (ite (= 6 ?x778) (ite $x524 152 151) (ite (= 5 ?x778) (ite $x524 121 120) ?x1189))))
(let ((?x529 (ite (= 8 ?x778) (ite $x524 213 212) (ite (= 7 ?x778) (ite $x524 182 181) ?x542))))
(let ((?x1024 (ite (= 10 ?x778) (ite $x524 274 273) (ite (= 9 ?x778) (ite $x524 244 243) ?x529))))
(let ((?x610 (ite (= 12 ?x778) (ite $x524 335 334) (ite (= 11 ?x778) (ite $x524 305 304) ?x1024))))
(let ((?x490 (+ ?x673 (+ 0 (div ?x1686 12)))))
(let ((?x1084 (ite $x1082 ?x490 ?x2452)))
(let ((?x557 (- ?x1084 1)))
(let ((?x3352 (+ (- (+ (* 365 ?x557) (div ?x557 4)) (div ?x557 100)) (div ?x557 400))))
(= (- (+ (+ ?x3352 ?x610) (- (ite $x1082 ?x1053 ?x839) 1)) 730179) (+ x_days 61))))))))))))))))))))))))))))))))))))))))))))))))))))))))))))))))))))))))))))))))))))))))))))))))))))))))))))))))))))))))
(check-sat)
